c An instance of conditional planning (by rintanen@informatik.uni-ulm.de)
p cnf 321 1144
e 220 221 222 223 224 225 226 227 228 229 230 231 232 233 234 235 236 237 238 239 240 241 242 243 244 245 246 247 248 249 250 251 252 253 254 255 256 257 258 259 260 261 262 263 264 265 266 267 268 269 270 271 272 273 274 275 276 277 278 279 280 281 282 283 284 285 286 287 288 289 290 291 292 293 294 295 296 297 298 299 300 301 302 303 0
a 306 305 307 0
e 1 2 3 4 5 6 7 8 9 10 11 12 13 14 15 16 17 18 19 20 21 22 23 24 25 26 27 28 29 30 31 32 33 34 35 36 37 38 39 40 41 42 43 44 45 46 47 48 49 50 51 52 53 54 55 56 57 58 59 60 61 62 63 64 65 66 67 68 69 70 71 72 73 74 75 76 77 78 79 80 81 82 83 84 85 86 87 88 89 90 91 92 93 94 95 96 97 98 99 100 101 102 103 104 105 106 107 108 109 110 111 112 113 114 115 116 117 118 119 120 121 122 123 124 125 126 127 128 129 130 131 132 133 134 135 136 137 138 139 140 141 142 143 144 145 146 147 148 149 150 151 152 153 154 155 156 157 158 159 160 161 162 163 164 165 166 167 168 169 170 171 172 173 174 175 176 177 178 179 180 181 182 183 184 185 186 187 188 189 190 191 192 193 194 195 196 197 198 199 200 201 202 203 204 205 206 207 208 209 210 211 212 213 214 215 216 217 218 219 304 308 309 310 311 312 313 314 315 316 317 318 319 320 321 0
-306 -308 305 307 0
-306 -309 305 307 0
-306 -310 305 307 0
-306 305 307 311 0
-306 -312 305 307 0
-306 -313 305 307 0
-305 -307 -308 306 0
-305 -307 -309 306 0
-305 -307 306 310 0
-305 -307 -311 306 0
-305 -307 -312 306 0
-305 -307 -313 306 0
-305 -308 306 307 0
-305 306 307 309 0
-305 -310 306 307 0
-305 -311 306 307 0
-305 -312 306 307 0
-305 -313 306 307 0
-307 305 306 308 0
-307 -309 305 306 0
-307 -310 305 306 0
-307 -311 305 306 0
-307 -312 305 306 0
-307 -313 305 306 0
-308 305 306 307 0
-309 305 306 307 0
-310 305 306 307 0
-311 305 306 307 0
-312 305 306 307 0
305 306 307 313 0
-306 -307 -308 305 0
-306 -307 -309 305 0
-306 -307 -310 305 0
-306 -307 -311 305 0
-306 -307 305 312 0
-306 -307 -313 305 0
-314 0
-315 0
-316 0
-317 0
-318 0
-319 0
-320 0
321 0
-220 -314 0
-220 -315 0
-99 -221 0
-88 -221 0
-100 -222 0
-89 -222 0
-101 -223 0
-90 -223 0
-102 -224 0
-91 -224 0
-103 -225 0
-92 -225 0
-104 -226 0
-93 -226 0
-105 -227 0
-94 -227 0
-106 -228 0
-95 -228 0
-107 -229 0
-96 -229 0
-108 -230 0
-97 -230 0
-232 -316 0
-232 -314 0
-121 -233 0
-99 -233 0
-122 -234 0
-100 -234 0
-123 -235 0
-101 -235 0
-124 -236 0
-102 -236 0
-125 -237 0
-103 -237 0
-126 -238 0
-104 -238 0
-127 -239 0
-105 -239 0
-128 -240 0
-106 -240 0
-129 -241 0
-107 -241 0
-130 -242 0
-108 -242 0
-244 -317 0
-244 -314 0
-143 -245 0
-99 -245 0
-144 -246 0
-100 -246 0
-145 -247 0
-101 -247 0
-146 -248 0
-102 -248 0
-147 -249 0
-103 -249 0
-148 -250 0
-104 -250 0
-149 -251 0
-105 -251 0
-150 -252 0
-106 -252 0
-151 -253 0
-107 -253 0
-152 -254 0
-108 -254 0
-256 -318 0
-256 -314 0
-165 -257 0
-99 -257 0
-166 -258 0
-100 -258 0
-167 -259 0
-101 -259 0
-168 -260 0
-102 -260 0
-169 -261 0
-103 -261 0
-170 -262 0
-104 -262 0
-171 -263 0
-105 -263 0
-172 -264 0
-106 -264 0
-173 -265 0
-107 -265 0
-174 -266 0
-108 -266 0
-268 -319 0
-268 -314 0
-187 -269 0
-99 -269 0
-188 -270 0
-100 -270 0
-189 -271 0
-101 -271 0
-190 -272 0
-102 -272 0
-191 -273 0
-103 -273 0
-192 -274 0
-104 -274 0
-193 -275 0
-105 -275 0
-194 -276 0
-106 -276 0
-195 -277 0
-107 -277 0
-196 -278 0
-108 -278 0
-280 -320 0
-280 -314 0
-209 -282 0
-99 -282 0
-210 -284 0
-100 -284 0
-211 -286 0
-101 -286 0
-212 -288 0
-102 -288 0
-213 -290 0
-103 -290 0
-214 -292 0
-104 -292 0
-215 -294 0
-105 -294 0
-216 -296 0
-106 -296 0
-217 -298 0
-107 -298 0
-218 -300 0
-108 -300 0
-220 99 0
-220 88 0
-221 100 0
-221 89 0
-222 101 0
-222 90 0
-223 102 0
-223 91 0
-224 103 0
-224 92 0
-225 104 0
-225 93 0
-226 105 0
-226 94 0
-227 106 0
-227 95 0
-228 107 0
-228 96 0
-229 108 0
-229 97 0
-230 109 0
-230 98 0
-232 121 0
-232 99 0
-233 122 0
-233 100 0
-234 123 0
-234 101 0
-235 124 0
-235 102 0
-236 125 0
-236 103 0
-237 126 0
-237 104 0
-238 127 0
-238 105 0
-239 128 0
-239 106 0
-240 129 0
-240 107 0
-241 130 0
-241 108 0
-242 131 0
-242 109 0
-244 143 0
-244 99 0
-245 144 0
-245 100 0
-246 145 0
-246 101 0
-247 146 0
-247 102 0
-248 147 0
-248 103 0
-249 148 0
-249 104 0
-250 149 0
-250 105 0
-251 150 0
-251 106 0
-252 151 0
-252 107 0
-253 152 0
-253 108 0
-254 153 0
-254 109 0
-256 165 0
-256 99 0
-257 166 0
-257 100 0
-258 167 0
-258 101 0
-259 168 0
-259 102 0
-260 169 0
-260 103 0
-261 170 0
-261 104 0
-262 171 0
-262 105 0
-263 172 0
-263 106 0
-264 173 0
-264 107 0
-265 174 0
-265 108 0
-266 175 0
-266 109 0
-268 187 0
-268 99 0
-269 188 0
-269 100 0
-270 189 0
-270 101 0
-271 190 0
-271 102 0
-272 191 0
-272 103 0
-273 192 0
-273 104 0
-274 193 0
-274 105 0
-275 194 0
-275 106 0
-276 195 0
-276 107 0
-277 196 0
-277 108 0
-278 197 0
-278 109 0
-280 209 0
-280 99 0
-282 210 0
-282 100 0
-284 211 0
-284 101 0
-286 212 0
-286 102 0
-288 213 0
-288 103 0
-290 214 0
-290 104 0
-292 215 0
-292 105 0
-294 216 0
-294 106 0
-296 217 0
-296 107 0
-298 218 0
-298 108 0
-300 219 0
-300 109 0
-99 -281 0
-100 -283 0
-101 -285 0
-102 -287 0
-103 -289 0
-104 -291 0
-105 -293 0
-106 -295 0
-107 -297 0
-108 -299 0
-109 -301 0
-9 -220 -313 0
-8 -17 -221 0
-16 -25 -222 0
-24 -33 -223 0
-32 -41 -224 0
-40 -49 -225 0
-48 -57 -226 0
-56 -65 -227 0
-64 -73 -228 0
-72 -81 -229 0
-80 -230 -304 0
-9 -232 -308 0
-17 -110 -233 0
-25 -111 -234 0
-33 -112 -235 0
-41 -113 -236 0
-49 -114 -237 0
-57 -115 -238 0
-65 -116 -239 0
-73 -117 -240 0
-81 -118 -241 0
-119 -242 -304 0
-9 -244 -309 0
-17 -132 -245 0
-25 -133 -246 0
-33 -134 -247 0
-41 -135 -248 0
-49 -136 -249 0
-57 -137 -250 0
-65 -138 -251 0
-73 -139 -252 0
-81 -140 -253 0
-141 -254 -304 0
-9 -256 -310 0
-17 -154 -257 0
-25 -155 -258 0
-33 -156 -259 0
-41 -157 -260 0
-49 -158 -261 0
-57 -159 -262 0
-65 -160 -263 0
-73 -161 -264 0
-81 -162 -265 0
-163 -266 -304 0
-9 -268 -311 0
-17 -176 -269 0
-25 -177 -270 0
-33 -178 -271 0
-41 -179 -272 0
-49 -180 -273 0
-57 -181 -274 0
-65 -182 -275 0
-73 -183 -276 0
-81 -184 -277 0
-185 -278 -304 0
-9 -280 -312 0
-17 -198 -282 0
-25 -199 -284 0
-33 -200 -286 0
-41 -201 -288 0
-49 -202 -290 0
-57 -203 -292 0
-65 -204 -294 0
-73 -205 -296 0
-81 -206 -298 0
-207 -300 -304 0
-8 313 0
-16 8 0
-24 16 0
-32 24 0
-40 32 0
-48 40 0
-56 48 0
-64 56 0
-72 64 0
-80 72 0
-1 80 0
-313 8 0
-8 16 0
-16 24 0
-24 32 0
-32 40 0
-40 48 0
-48 56 0
-56 64 0
-64 72 0
-72 80 0
-80 1 0
-9 321 0
-17 9 0
-25 17 0
-33 25 0
-41 33 0
-49 41 0
-57 49 0
-65 57 0
-73 65 0
-81 73 0
-304 81 0
-2 232 0
-2 308 0
-232 -308 2 0
-3 244 0
-3 309 0
-244 -309 3 0
-4 256 0
-4 310 0
-256 -310 4 0
-5 268 0
-5 311 0
-268 -311 5 0
-6 280 0
-6 312 0
-280 -312 6 0
-7 220 0
-7 313 0
-220 -313 7 0
-321 2 3 4 5 6 7 9 0
-10 233 0
-10 110 0
-110 -233 10 0
-11 245 0
-11 132 0
-132 -245 11 0
-12 257 0
-12 154 0
-154 -257 12 0
-13 269 0
-13 176 0
-176 -269 13 0
-14 282 0
-14 198 0
-198 -282 14 0
-15 221 0
-15 8 0
-8 -221 15 0
-9 10 11 12 13 14 15 17 0
-18 234 0
-18 111 0
-111 -234 18 0
-19 246 0
-19 133 0
-133 -246 19 0
-20 258 0
-20 155 0
-155 -258 20 0
-21 270 0
-21 177 0
-177 -270 21 0
-22 284 0
-22 199 0
-199 -284 22 0
-23 222 0
-23 16 0
-16 -222 23 0
-17 18 19 20 21 22 23 25 0
-26 235 0
-26 112 0
-112 -235 26 0
-27 247 0
-27 134 0
-134 -247 27 0
-28 259 0
-28 156 0
-156 -259 28 0
-29 271 0
-29 178 0
-178 -271 29 0
-30 286 0
-30 200 0
-200 -286 30 0
-31 223 0
-31 24 0
-24 -223 31 0
-25 26 27 28 29 30 31 33 0
-34 236 0
-34 113 0
-113 -236 34 0
-35 248 0
-35 135 0
-135 -248 35 0
-36 260 0
-36 157 0
-157 -260 36 0
-37 272 0
-37 179 0
-179 -272 37 0
-38 288 0
-38 201 0
-201 -288 38 0
-39 224 0
-39 32 0
-32 -224 39 0
-33 34 35 36 37 38 39 41 0
-42 237 0
-42 114 0
-114 -237 42 0
-43 249 0
-43 136 0
-136 -249 43 0
-44 261 0
-44 158 0
-158 -261 44 0
-45 273 0
-45 180 0
-180 -273 45 0
-46 290 0
-46 202 0
-202 -290 46 0
-47 225 0
-47 40 0
-40 -225 47 0
-41 42 43 44 45 46 47 49 0
-50 238 0
-50 115 0
-115 -238 50 0
-51 250 0
-51 137 0
-137 -250 51 0
-52 262 0
-52 159 0
-159 -262 52 0
-53 274 0
-53 181 0
-181 -274 53 0
-54 292 0
-54 203 0
-203 -292 54 0
-55 226 0
-55 48 0
-48 -226 55 0
-49 50 51 52 53 54 55 57 0
-58 239 0
-58 116 0
-116 -239 58 0
-59 251 0
-59 138 0
-138 -251 59 0
-60 263 0
-60 160 0
-160 -263 60 0
-61 275 0
-61 182 0
-182 -275 61 0
-62 294 0
-62 204 0
-204 -294 62 0
-63 227 0
-63 56 0
-56 -227 63 0
-57 58 59 60 61 62 63 65 0
-66 240 0
-66 117 0
-117 -240 66 0
-67 252 0
-67 139 0
-139 -252 67 0
-68 264 0
-68 161 0
-161 -264 68 0
-69 276 0
-69 183 0
-183 -276 69 0
-70 296 0
-70 205 0
-205 -296 70 0
-71 228 0
-71 64 0
-64 -228 71 0
-65 66 67 68 69 70 71 73 0
-74 241 0
-74 118 0
-118 -241 74 0
-75 253 0
-75 140 0
-140 -253 75 0
-76 265 0
-76 162 0
-162 -265 76 0
-77 277 0
-77 184 0
-184 -277 77 0
-78 298 0
-78 206 0
-206 -298 78 0
-79 229 0
-79 72 0
-72 -229 79 0
-73 74 75 76 77 78 79 81 0
-82 242 0
-82 119 0
-119 -242 82 0
-83 254 0
-83 141 0
-141 -254 83 0
-84 266 0
-84 163 0
-163 -266 84 0
-85 278 0
-85 185 0
-185 -278 85 0
-86 300 0
-86 207 0
-207 -300 86 0
-87 230 0
-87 80 0
-80 -230 87 0
-81 82 83 84 85 86 87 304 0
-88 220 315 0
-89 88 221 0
-90 89 222 0
-91 90 223 0
-92 91 224 0
-93 92 225 0
-94 93 226 0
-95 94 227 0
-96 95 228 0
-97 96 229 0
-98 97 230 0
-315 88 0
-88 89 0
-89 90 0
-90 91 0
-91 92 0
-92 93 0
-93 94 0
-94 95 0
-95 96 0
-96 97 0
-97 98 0
-99 220 232 244 256 268 280 314 0
-100 99 221 233 245 257 269 282 0
-101 100 222 234 246 258 270 284 0
-102 101 223 235 247 259 271 286 0
-103 102 224 236 248 260 272 288 0
-104 103 225 237 249 261 273 290 0
-105 104 226 238 250 262 274 292 0
-106 105 227 239 251 263 275 294 0
-107 106 228 240 252 264 276 296 0
-108 107 229 241 253 265 277 298 0
-109 108 230 242 254 266 278 300 0
-314 99 281 0
-99 100 283 0
-100 101 285 0
-101 102 287 0
-102 103 289 0
-103 104 291 0
-104 105 293 0
-105 106 295 0
-106 107 297 0
-107 108 299 0
-108 109 301 0
-110 308 0
-111 110 0
-112 111 0
-113 112 0
-114 113 0
-115 114 0
-116 115 0
-117 116 0
-118 117 0
-119 118 0
-120 119 0
-308 110 0
-110 111 0
-111 112 0
-112 113 0
-113 114 0
-114 115 0
-115 116 0
-116 117 0
-117 118 0
-118 119 0
-119 120 0
-121 232 316 0
-122 121 233 0
-123 122 234 0
-124 123 235 0
-125 124 236 0
-126 125 237 0
-127 126 238 0
-128 127 239 0
-129 128 240 0
-130 129 241 0
-131 130 242 0
-316 121 0
-121 122 0
-122 123 0
-123 124 0
-124 125 0
-125 126 0
-126 127 0
-127 128 0
-128 129 0
-129 130 0
-130 131 0
-132 309 0
-133 132 0
-134 133 0
-135 134 0
-136 135 0
-137 136 0
-138 137 0
-139 138 0
-140 139 0
-141 140 0
-142 141 0
-309 132 0
-132 133 0
-133 134 0
-134 135 0
-135 136 0
-136 137 0
-137 138 0
-138 139 0
-139 140 0
-140 141 0
-141 142 0
-143 244 317 0
-144 143 245 0
-145 144 246 0
-146 145 247 0
-147 146 248 0
-148 147 249 0
-149 148 250 0
-150 149 251 0
-151 150 252 0
-152 151 253 0
-153 152 254 0
-317 143 0
-143 144 0
-144 145 0
-145 146 0
-146 147 0
-147 148 0
-148 149 0
-149 150 0
-150 151 0
-151 152 0
-152 153 0
-154 310 0
-155 154 0
-156 155 0
-157 156 0
-158 157 0
-159 158 0
-160 159 0
-161 160 0
-162 161 0
-163 162 0
-164 163 0
-310 154 0
-154 155 0
-155 156 0
-156 157 0
-157 158 0
-158 159 0
-159 160 0
-160 161 0
-161 162 0
-162 163 0
-163 164 0
-165 256 318 0
-166 165 257 0
-167 166 258 0
-168 167 259 0
-169 168 260 0
-170 169 261 0
-171 170 262 0
-172 171 263 0
-173 172 264 0
-174 173 265 0
-175 174 266 0
-318 165 0
-165 166 0
-166 167 0
-167 168 0
-168 169 0
-169 170 0
-170 171 0
-171 172 0
-172 173 0
-173 174 0
-174 175 0
-176 311 0
-177 176 0
-178 177 0
-179 178 0
-180 179 0
-181 180 0
-182 181 0
-183 182 0
-184 183 0
-185 184 0
-186 185 0
-311 176 0
-176 177 0
-177 178 0
-178 179 0
-179 180 0
-180 181 0
-181 182 0
-182 183 0
-183 184 0
-184 185 0
-185 186 0
-187 268 319 0
-188 187 269 0
-189 188 270 0
-190 189 271 0
-191 190 272 0
-192 191 273 0
-193 192 274 0
-194 193 275 0
-195 194 276 0
-196 195 277 0
-197 196 278 0
-319 187 0
-187 188 0
-188 189 0
-189 190 0
-190 191 0
-191 192 0
-192 193 0
-193 194 0
-194 195 0
-195 196 0
-196 197 0
-198 312 0
-199 198 0
-200 199 0
-201 200 0
-202 201 0
-203 202 0
-204 203 0
-205 204 0
-206 205 0
-207 206 0
-208 207 0
-312 198 0
-198 199 0
-199 200 0
-200 201 0
-201 202 0
-202 203 0
-203 204 0
-204 205 0
-205 206 0
-206 207 0
-207 208 0
-209 280 320 0
-210 209 282 0
-211 210 284 0
-212 211 286 0
-213 212 288 0
-214 213 290 0
-215 214 292 0
-216 215 294 0
-217 216 296 0
-218 217 298 0
-219 218 300 0
-320 209 0
-209 210 0
-210 211 0
-211 212 0
-212 213 0
-213 214 0
-214 215 0
-215 216 0
-216 217 0
-217 218 0
-218 219 0
-220 -232 0
-221 -233 0
-222 -234 0
-223 -235 0
-224 -236 0
-225 -237 0
-226 -238 0
-227 -239 0
-228 -240 0
-229 -241 0
-230 -242 0
-231 -243 0
-220 -244 0
-221 -245 0
-222 -246 0
-223 -247 0
-224 -248 0
-225 -249 0
-226 -250 0
-227 -251 0
-228 -252 0
-229 -253 0
-230 -254 0
-231 -255 0
-220 -256 0
-221 -257 0
-222 -258 0
-223 -259 0
-224 -260 0
-225 -261 0
-226 -262 0
-227 -263 0
-228 -264 0
-229 -265 0
-230 -266 0
-231 -267 0
-220 -268 0
-221 -269 0
-222 -270 0
-223 -271 0
-224 -272 0
-225 -273 0
-226 -274 0
-227 -275 0
-228 -276 0
-229 -277 0
-230 -278 0
-231 -279 0
-220 -280 0
-221 -282 0
-222 -284 0
-223 -286 0
-224 -288 0
-225 -290 0
-226 -292 0
-227 -294 0
-228 -296 0
-229 -298 0
-230 -300 0
-231 -302 0
-220 -281 0
-221 -283 0
-222 -285 0
-223 -287 0
-224 -289 0
-225 -291 0
-226 -293 0
-227 -295 0
-228 -297 0
-229 -299 0
-230 -301 0
-231 -303 0
-232 -244 0
-233 -245 0
-234 -246 0
-235 -247 0
-236 -248 0
-237 -249 0
-238 -250 0
-239 -251 0
-240 -252 0
-241 -253 0
-242 -254 0
-243 -255 0
-232 -256 0
-233 -257 0
-234 -258 0
-235 -259 0
-236 -260 0
-237 -261 0
-238 -262 0
-239 -263 0
-240 -264 0
-241 -265 0
-242 -266 0
-243 -267 0
-232 -268 0
-233 -269 0
-234 -270 0
-235 -271 0
-236 -272 0
-237 -273 0
-238 -274 0
-239 -275 0
-240 -276 0
-241 -277 0
-242 -278 0
-243 -279 0
-232 -280 0
-233 -282 0
-234 -284 0
-235 -286 0
-236 -288 0
-237 -290 0
-238 -292 0
-239 -294 0
-240 -296 0
-241 -298 0
-242 -300 0
-243 -302 0
-232 -281 0
-233 -283 0
-234 -285 0
-235 -287 0
-236 -289 0
-237 -291 0
-238 -293 0
-239 -295 0
-240 -297 0
-241 -299 0
-242 -301 0
-243 -303 0
-244 -256 0
-245 -257 0
-246 -258 0
-247 -259 0
-248 -260 0
-249 -261 0
-250 -262 0
-251 -263 0
-252 -264 0
-253 -265 0
-254 -266 0
-255 -267 0
-244 -268 0
-245 -269 0
-246 -270 0
-247 -271 0
-248 -272 0
-249 -273 0
-250 -274 0
-251 -275 0
-252 -276 0
-253 -277 0
-254 -278 0
-255 -279 0
-244 -280 0
-245 -282 0
-246 -284 0
-247 -286 0
-248 -288 0
-249 -290 0
-250 -292 0
-251 -294 0
-252 -296 0
-253 -298 0
-254 -300 0
-255 -302 0
-244 -281 0
-245 -283 0
-246 -285 0
-247 -287 0
-248 -289 0
-249 -291 0
-250 -293 0
-251 -295 0
-252 -297 0
-253 -299 0
-254 -301 0
-255 -303 0
-256 -268 0
-257 -269 0
-258 -270 0
-259 -271 0
-260 -272 0
-261 -273 0
-262 -274 0
-263 -275 0
-264 -276 0
-265 -277 0
-266 -278 0
-267 -279 0
-256 -280 0
-257 -282 0
-258 -284 0
-259 -286 0
-260 -288 0
-261 -290 0
-262 -292 0
-263 -294 0
-264 -296 0
-265 -298 0
-266 -300 0
-267 -302 0
-256 -281 0
-257 -283 0
-258 -285 0
-259 -287 0
-260 -289 0
-261 -291 0
-262 -293 0
-263 -295 0
-264 -297 0
-265 -299 0
-266 -301 0
-267 -303 0
-268 -280 0
-269 -282 0
-270 -284 0
-271 -286 0
-272 -288 0
-273 -290 0
-274 -292 0
-275 -294 0
-276 -296 0
-277 -298 0
-278 -300 0
-279 -302 0
-268 -281 0
-269 -283 0
-270 -285 0
-271 -287 0
-272 -289 0
-273 -291 0
-274 -293 0
-275 -295 0
-276 -297 0
-277 -299 0
-278 -301 0
-279 -303 0
-280 -281 0
-282 -283 0
-284 -285 0
-286 -287 0
-288 -289 0
-290 -291 0
-292 -293 0
-294 -295 0
-296 -297 0
-298 -299 0
-300 -301 0
-302 -303 0
-304 0
